c Generated map
c Size: 12 * 12, weights in range: 1 to 10, walls: True, with ratio 0.05
c dim 1 of 5
c
p sp 144 238
c graph contains 144 nodes and 238 arcs
c
a 1 2 4
a 2 1 4
a 2 14 2
a 14 2 2
a 2 3 6
a 3 2 6
a 3 4 6
a 4 3 6
a 4 16 4
a 16 4 4
a 4 5 7
a 5 4 7
a 5 17 2
a 17 5 2
a 5 6 5
a 6 5 5
a 6 18 7
a 18 6 7
a 6 7 6
a 7 6 6
a 7 19 5
a 19 7 5
a 7 8 8
a 8 7 8
a 8 20 10
a 20 8 10
a 8 9 4
a 9 8 4
a 9 21 10
a 21 9 10
a 9 10 4
a 10 9 4
a 10 22 4
a 22 10 4
a 10 11 3
a 11 10 3
a 11 23 2
a 23 11 2
a 11 12 2
a 12 11 2
a 12 24 5
a 24 12 5
a 14 26 4
a 26 14 4
a 16 28 6
a 28 16 6
a 16 17 8
a 17 16 8
a 17 29 1
a 29 17 1
a 17 18 5
a 18 17 5
a 18 30 2
a 30 18 2
a 18 19 4
a 19 18 4
a 19 31 1
a 31 19 1
a 19 20 6
a 20 19 6
a 20 32 10
a 32 20 10
a 20 21 5
a 21 20 5
a 21 33 1
a 33 21 1
a 21 22 10
a 22 21 10
a 22 34 2
a 34 22 2
a 22 23 10
a 23 22 10
a 23 35 6
a 35 23 6
a 23 24 6
a 24 23 6
a 25 37 10
a 37 25 10
a 25 26 4
a 26 25 4
a 26 38 4
a 38 26 4
a 26 27 10
a 27 26 10
a 27 39 3
a 39 27 3
a 27 28 9
a 28 27 9
a 28 40 2
a 40 28 2
a 28 29 4
a 29 28 4
a 29 41 10
a 41 29 10
a 29 30 9
a 30 29 9
a 30 31 7
a 31 30 7
a 31 43 6
a 43 31 6
a 31 32 7
a 32 31 7
a 32 44 4
a 44 32 4
a 32 33 5
a 33 32 5
a 33 45 9
a 45 33 9
a 33 34 7
a 34 33 7
a 34 46 2
a 46 34 2
a 34 35 9
a 35 34 9
a 35 47 10
a 47 35 10
a 37 49 10
a 49 37 10
a 37 38 9
a 38 37 9
a 38 50 5
a 50 38 5
a 38 39 1
a 39 38 1
a 39 40 4
a 40 39 4
a 40 52 4
a 52 40 4
a 40 41 7
a 41 40 7
a 41 53 9
a 53 41 9
a 43 55 6
a 55 43 6
a 43 44 7
a 44 43 7
a 44 56 10
a 56 44 10
a 44 45 1
a 45 44 1
a 45 57 5
a 57 45 5
a 45 46 3
a 46 45 3
a 46 58 7
a 58 46 7
a 46 47 4
a 47 46 4
a 47 59 7
a 59 47 7
a 47 48 1
a 48 47 1
a 48 60 7
a 60 48 7
a 49 61 9
a 61 49 9
a 49 50 1
a 50 49 1
a 50 62 10
a 62 50 10
a 52 64 10
a 64 52 10
a 52 53 3
a 53 52 3
a 53 65 10
a 65 53 10
a 53 54 6
a 54 53 6
a 54 66 1
a 66 54 1
a 54 55 6
a 55 54 6
a 55 67 4
a 67 55 4
a 55 56 2
a 56 55 2
a 56 68 10
a 68 56 10
a 56 57 9
a 57 56 9
a 57 69 1
a 69 57 1
a 57 58 9
a 58 57 9
a 58 70 6
a 70 58 6
a 58 59 8
a 59 58 8
a 59 71 5
a 71 59 5
a 59 60 3
a 60 59 3
a 60 72 7
a 72 60 7
a 61 73 10
a 73 61 10
a 61 62 7
a 62 61 7
a 62 74 4
a 74 62 4
a 62 63 4
a 63 62 4
a 63 75 2
a 75 63 2
a 63 64 7
a 64 63 7
a 64 76 4
a 76 64 4
a 64 65 5
a 65 64 5
a 65 77 4
a 77 65 4
a 65 66 2
a 66 65 2
a 66 78 7
a 78 66 7
a 66 67 1
a 67 66 1
a 67 79 8
a 79 67 8
a 67 68 7
a 68 67 7
a 68 69 5
a 69 68 5
a 69 81 10
a 81 69 10
a 69 70 6
a 70 69 6
a 70 82 3
a 82 70 3
a 70 71 5
a 71 70 5
a 71 83 10
a 83 71 10
a 71 72 6
a 72 71 6
a 72 84 9
a 84 72 9
a 73 85 8
a 85 73 8
a 73 74 3
a 74 73 3
a 74 86 9
a 86 74 9
a 74 75 10
a 75 74 10
a 75 87 7
a 87 75 7
a 75 76 7
a 76 75 7
a 76 88 3
a 88 76 3
a 76 77 2
a 77 76 2
a 77 89 3
a 89 77 3
a 77 78 10
a 78 77 10
a 78 90 9
a 90 78 9
a 78 79 2
a 79 78 2
a 79 91 3
a 91 79 3
a 81 93 5
a 93 81 5
a 81 82 1
a 82 81 1
a 82 94 6
a 94 82 6
a 82 83 2
a 83 82 2
a 83 95 8
a 95 83 8
a 83 84 6
a 84 83 6
a 84 96 7
a 96 84 7
a 85 97 9
a 97 85 9
a 85 86 1
a 86 85 1
a 86 98 9
a 98 86 9
a 86 87 9
a 87 86 9
a 87 99 7
a 99 87 7
a 87 88 7
a 88 87 7
a 88 100 4
a 100 88 4
a 88 89 2
a 89 88 2
a 89 101 9
a 101 89 9
a 89 90 10
a 90 89 10
a 90 102 4
a 102 90 4
a 90 91 8
a 91 90 8
a 91 103 6
a 103 91 6
a 91 92 5
a 92 91 5
a 92 104 8
a 104 92 8
a 92 93 9
a 93 92 9
a 93 105 9
a 105 93 9
a 93 94 3
a 94 93 3
a 94 106 4
a 106 94 4
a 94 95 6
a 95 94 6
a 95 107 2
a 107 95 2
a 95 96 2
a 96 95 2
a 96 108 10
a 108 96 10
a 97 109 7
a 109 97 7
a 97 98 10
a 98 97 10
a 98 110 6
a 110 98 6
a 98 99 9
a 99 98 9
a 99 111 5
a 111 99 5
a 99 100 5
a 100 99 5
a 100 112 5
a 112 100 5
a 100 101 8
a 101 100 8
a 101 113 3
a 113 101 3
a 101 102 1
a 102 101 1
a 102 114 2
a 114 102 2
a 102 103 1
a 103 102 1
a 103 115 2
a 115 103 2
a 103 104 2
a 104 103 2
a 104 116 10
a 116 104 10
a 104 105 1
a 105 104 1
a 105 117 6
a 117 105 6
a 105 106 10
a 106 105 10
a 106 118 6
a 118 106 6
a 106 107 10
a 107 106 10
a 107 119 3
a 119 107 3
a 107 108 10
a 108 107 10
a 108 120 4
a 120 108 4
a 109 121 3
a 121 109 3
a 109 110 3
a 110 109 3
a 110 122 8
a 122 110 8
a 110 111 1
a 111 110 1
a 111 123 4
a 123 111 4
a 111 112 4
a 112 111 4
a 112 124 1
a 124 112 1
a 112 113 9
a 113 112 9
a 113 125 1
a 125 113 1
a 113 114 9
a 114 113 9
a 114 126 5
a 126 114 5
a 114 115 2
a 115 114 2
a 115 116 2
a 116 115 2
a 116 128 3
a 128 116 3
a 116 117 3
a 117 116 3
a 117 129 3
a 129 117 3
a 117 118 2
a 118 117 2
a 118 130 4
a 130 118 4
a 118 119 2
a 119 118 2
a 119 131 4
a 131 119 4
a 119 120 2
a 120 119 2
a 120 132 4
a 132 120 4
a 121 133 2
a 133 121 2
a 121 122 4
a 122 121 4
a 122 134 8
a 134 122 8
a 122 123 1
a 123 122 1
a 123 135 7
a 135 123 7
a 123 124 8
a 124 123 8
a 124 136 3
a 136 124 3
a 124 125 3
a 125 124 3
a 125 137 8
a 137 125 8
a 125 126 6
a 126 125 6
a 126 138 8
a 138 126 8
a 128 140 3
a 140 128 3
a 128 129 3
a 129 128 3
a 129 141 8
a 141 129 8
a 129 130 4
a 130 129 4
a 130 142 4
a 142 130 4
a 130 131 10
a 131 130 10
a 131 143 6
a 143 131 6
a 131 132 9
a 132 131 9
a 132 144 9
a 144 132 9
a 133 134 9
a 134 133 9
a 134 135 2
a 135 134 2
a 135 136 1
a 136 135 1
a 136 137 3
a 137 136 3
a 137 138 5
a 138 137 5
a 138 139 8
a 139 138 8
a 139 140 5
a 140 139 5
a 140 141 3
a 141 140 3
a 141 142 10
a 142 141 10
a 142 143 10
a 143 142 10
a 143 144 5
a 144 143 5
